NAME : netgen22-5_32
COMMENT : Generated using the function generateClusteredNetwork from the R-package netgen (Bossek,2015) - Number of clusters: 5
TYPE : TSP
DIMENSION : 22
EDGE_WEIGHT_TYPE : EUC_2D
NODE_COORD_SECTION
1 33.9674163372 34.0269313717
2 23.9598397303 41.4252704065
3 32.7406999714 30.7877434515
4 25.3586681498 39.3430964678
5 55.9790645214 78.1903116896
6 61.0534264952 57.7461994509
7 67.7473903201 78.4001633248
8 57.831543844 66.9599568566
9 25.5967849631 6.0945391558
10 10.4730001591 8.9101691067
11 2.0569112235 8.4182942046
12 5.5975719472 10.7123853258
13 99.7245852471 72.5417979057
14 99.8427318923 94.7846230007
15 93.4570086596 84.8728107414
16 96.818273899 78.0372252175
17 48.1090908626 50.5580954477
18 53.9365874732 48.1673077156
19 52.853312845 59.254807725
20 51.926564604 51.5401275554
21 44.8550350124 63.5734173636
22 45.9016075433 55.1876408948
EOF
